# LAMMPS input file. Automaticly created by pyLAMMPS

# Define general settings

units real
dimension 3
boundary p p p
atom_style full

# Read system

read_restart   ../00_em/em.restart

# Include force field paramters

include   ../../../force_field.params

# Define the neighbor list settings

neighbor 2.0 bin
neigh_modify every 1 delay 0 check yes 

# Define special bonds to scale 1-2, 1-3, or 1-4 vdW / Coulomb pair interactions

special_bonds lj 0 0 0  coul 0 0 0


# ============= INITIAL SYSTEM SETUP AND EQUILIBRATION =============

# ------------- general ---------------

variable  project             index       npt
variable  timestep            equal       1
variable  run_time            equal       20000000

timestep  ${timestep}

# ------------- set integration settings ---------------


variable temperature  equal 298.15
variable pressure  equal 0.987

# ------------- time integration ---------------

fix int_npt all npt temp ${temperature} ${temperature} $(100.0*v_timestep) iso ${pressure} ${pressure} $(1000.0*v_timestep)

# ============= VARIABLES ===============

# ------------- output ---------------

variable  sample_frequency    equal       10
variable  sample_number       equal       100
variable  to_file_every       equal       $(v_sample_frequency*v_sample_number)
variable  to_screen_every     equal       $(v_to_file_every*10)
      
# ------------- values ---------------

variable step equal step

# ============= SAMPLING CONDITIONS ============= 

thermo          ${to_screen_every}
thermo_style    custom step temp press pe ke etotal enthalpy vol density 



# Sample: energy

# Define sample variables

variable potential_energy  equal pe
variable kinetic_energy  equal ke
variable enthalpy  equal enthalpy

fix ene all ave/time ${sample_frequency} ${sample_number} ${to_file_every} &
 c_thermo_temp v_potential_energy v_kinetic_energy v_enthalpy &
 title2 '# step (fs), temperature (K), potential_energy (kcal/mol), kinetic_energy (kcal/mol), enthalpy (kcal/mol)' &
 file ${project}.energy




# Sample: density

# Define sample variables

variable density  equal density

fix density all ave/time ${sample_frequency} ${sample_number} ${to_file_every} &
 c_thermo_temp v_density   &
 title2 '# step (fs), temperature (K), density (g/cm^3)' &
 file ${project}.density




# Sample: dihedral_occo

# Define any further verbatim input

group occo type 2 3
compute dihedral_occo occo dihedral/local phi

fix dihedral_occo all ave/histo ${sample_frequency} ${sample_number} ${to_file_every} &
 -180 180 501 c_dihedral_occo mode vector ave running overwrite &
 file ${project}.dihedral_occo




# Sample: positions

dump trj all atom 10000 ${project}.lammpstrj




# ============= RUN CONDITIONS =============

run             ${run_time}

# Write restart after successful simulation

write_restart ${project}.restart